100 8
323 906
525 253
471 354
970 330
629 601
763 251
424 460
500 441
812 884
866 226
788 469
349 789
740 370
697 897
499 415
846 931
335 778
977 196
402 161
399 941
558 542
456 265
410 431
435 476
824 553
568 402
367 194
362 560
572 584
379 507
855 824
372 478
601 509
603 228
437 873
362 525
460 666
672 312
638 189
461 315
312 315
553 448
896 186
902 376
936 168
783 763
393 487
678 323
692 223
295 434
848 399
862 775
799 740
375 316
350 740
490 318
768 792
895 275
829 463
291 947
919 778
647 322
691 259
761 769
674 205
722 571
365 720
451 582
696 206
303 854
814 819
567 530
686 634
325 936
595 512
755 667
675 848
419 342
391 309
670 715
955 202
740 132
663 553
820 918
951 907
904 158
815 494
686 750
483 587
718 324
726 911
463 160
813 837
597 282
947 289
763 201
629 636
987 285
367 820
658 748
